Ga  N                                   
   1.00000000000000     
     3.4869505764281419    0.1071877452142112   -0.0089213938656312
    -0.1737687869105482    3.2776124186486761   -0.0902755616418737
    -0.0002484342539216    0.2190092695463205    3.7123197265806285
   Ga   N 
     2     2
Direct
  0.9168512171174339  0.3162575585549633  0.5194690974369307
  0.4171209798151082 -0.1848467390367568  0.0197057855248386
  0.4172767181732345  0.3237803048133064 -0.2498081717448243
 -0.0827889151057736  0.8247288756684912  0.2505432887830541
 
  0.00000000E+00  0.00000000E+00  0.00000000E+00
  0.00000000E+00  0.00000000E+00  0.00000000E+00
  0.00000000E+00  0.00000000E+00  0.00000000E+00
  0.00000000E+00  0.00000000E+00  0.00000000E+00
