Ga  N                                   
   1.00000000000000     
     4.2626746673380316    0.0024988361983127    0.5629153186109762
    -2.6202032495161260    3.3331248500544213   -0.1542132548336094
     0.2168990940827225   -0.2006747616199675    5.4762295291645842
   Ga   N 
     2     2
Direct
  0.2879134700144714  0.5330153093289507  0.7374973883607477
  0.8070082555035478  0.7703276735327474  0.3796097303788180
  0.5352735671879771 -0.4986222954092841  0.2075018348065965
 -0.4913352927059952 -0.0397506874524158  0.2863610464538320
 
  0.00000000E+00  0.00000000E+00  0.00000000E+00
  0.00000000E+00  0.00000000E+00  0.00000000E+00
  0.00000000E+00  0.00000000E+00  0.00000000E+00
  0.00000000E+00  0.00000000E+00  0.00000000E+00
