Ga  N                                   
   1.00000000000000     
     8.2344350248714928   -0.3428681155555793   -0.9861793551502417
    -0.9735306485611215    4.8251993183575399    0.4344583509877775
    -1.5454687020792499    0.0364268733361758    3.2929709919422616
   Ga   N 
     2     2
Direct
 -0.1848539520679828  0.6110536228297464 -0.0350401948217224
  0.3297072246257068 -0.0543486856281572  0.0556653888308810
 -0.3676677964753997 -0.2902659451567063 -0.4356228381940208
  0.0891745239176687 -0.0493389920448810  0.3851476441848589
 
  0.00000000E+00  0.00000000E+00  0.00000000E+00
  0.00000000E+00  0.00000000E+00  0.00000000E+00
  0.00000000E+00  0.00000000E+00  0.00000000E+00
  0.00000000E+00  0.00000000E+00  0.00000000E+00
