Ga  N                                   
   1.00000000000000     
    47.7939321634722276    3.5927190295583582   -7.4766534123928201
   -17.0778227736397987    5.5272418286968445    1.7325553052809004
    -2.1460222012272339    3.4245381591848534   10.1607176787105278
   Ga   N 
     2     2
Direct
  0.6817967938338112  0.4171500559245281 -0.2919247981369044
  0.6912068499521370  0.2670066252626533 -0.6675263443522412
  0.5926082287769335  0.2753375213246835 -0.2849764399192941
 -0.1867618725628840 -0.5660442025118707  0.5643575824084311
 
  0.00000000E+00  0.00000000E+00  0.00000000E+00
  0.00000000E+00  0.00000000E+00  0.00000000E+00
  0.00000000E+00  0.00000000E+00  0.00000000E+00
  0.00000000E+00  0.00000000E+00  0.00000000E+00
