Ga  N                                   
   1.00000000000000     
     3.1646460642359742   -0.1069300253032005    0.2086307064113376
    -1.5281203114159543    2.7662174017973307   -0.1070054570832645
     0.6658909349092610    0.7183640540066311    5.5155691238987368
   Ga   N 
     2     2
Direct
  0.5908361644391465  0.5695342682473723 -0.4163341881772086
  0.1890449003765965  0.3977597129598247  0.0155103577874227
  0.4468478284244252  0.0248563881212284  0.1626794979256618
 -0.6660088932401578 -0.0571103693284246  0.4360743324641236
 
  0.00000000E+00  0.00000000E+00  0.00000000E+00
  0.00000000E+00  0.00000000E+00  0.00000000E+00
  0.00000000E+00  0.00000000E+00  0.00000000E+00
  0.00000000E+00  0.00000000E+00  0.00000000E+00
