Ga  N                                   
   1.00000000000000     
     1.7879300000000000    0.0000000000000000    0.0000000000000000
    -0.3596010701105025    2.2195077095778202    0.0000000000000000
    -0.3071040528914307    0.3170780139555852    2.6652938287857944
   Ga   N 
     2     2
Direct
  0.2686300000000017  0.0602099999999979  0.2915500000000009
  0.9125399999999999  0.4174799999999976  0.0155699999999968
  0.5030799999999971  0.4660900000000012  0.1558700000000002
  0.3572699999999998  0.3904700000000005  0.0771299999999968
 
  0.00000000E+00  0.00000000E+00  0.00000000E+00
  0.00000000E+00  0.00000000E+00  0.00000000E+00
  0.00000000E+00  0.00000000E+00  0.00000000E+00
  0.00000000E+00  0.00000000E+00  0.00000000E+00
