Ga  N                                   
   1.00000000000000     
     4.3948722133404328    0.0367379296565897   -0.4832268346732224
     1.6650575587236809    2.5408602464562686    0.1226993795253692
     1.8931761068512267    1.2899549931889409    3.1894628706546873
   Ga   N 
     2     2
Direct
  0.1367432337446810  0.0164072691752863 -0.1228134127757397
 -0.3627908577280929  0.5174304075449567  0.3772512036569435
 -0.3892470383028898  0.3116192415268055 -0.0154247629230391
  0.1109646622863064  0.8100130817529532  0.4842269720418391
 
  0.00000000E+00  0.00000000E+00  0.00000000E+00
  0.00000000E+00  0.00000000E+00  0.00000000E+00
  0.00000000E+00  0.00000000E+00  0.00000000E+00
  0.00000000E+00  0.00000000E+00  0.00000000E+00
