Ga  N                                   
   1.00000000000000     
     3.1177708933980068    0.1372865609257664   -0.0168280208835153
     1.2071028733770512    2.9000693361870153    0.1746351579021082
    -0.3116954658000413   -0.5324044343498174    5.1152614910608065
   Ga   N 
     2     2
Direct
  0.9166405762551441 -0.0828319477043954 -0.2249979667124265
  0.5864113720671548  0.5853442743307065  0.2751318590429835
 -0.0748769709240925 -0.0693377378830204  0.1553498404623279
  0.5613850226017905 -0.4402045887432972  0.6519862672071218
 
  0.00000000E+00  0.00000000E+00  0.00000000E+00
  0.00000000E+00  0.00000000E+00  0.00000000E+00
  0.00000000E+00  0.00000000E+00  0.00000000E+00
  0.00000000E+00  0.00000000E+00  0.00000000E+00
