Ga  N                                   
   1.00000000000000     
     3.1514237429542145    0.1726994671586010   -0.1342651713886244
     1.7378092237734113    4.9622302294349199    0.1805633986771785
     1.2474026949119714    0.9201790626143407    3.4658208768667480
   Ga   N 
     2     2
Direct
  0.3777577127572568  0.8219812443675695 -0.1474922501371897
  0.1413760772533402  0.5064864333886087  0.5466256959094804
  0.2780039084886858  0.1637637834247116  0.0318429208728433
  0.2408123015007194  0.1644285388191051  0.3674436333548658
 
  0.00000000E+00  0.00000000E+00  0.00000000E+00
  0.00000000E+00  0.00000000E+00  0.00000000E+00
  0.00000000E+00  0.00000000E+00  0.00000000E+00
  0.00000000E+00  0.00000000E+00  0.00000000E+00
