Ga  N                                   
   1.00000000000000     
     5.7115965375413200   -0.1109367796093048    0.1487980887614696
     3.1974916768869730    4.2612300390711582    0.9815865599006157
     1.6105217152995150    0.9108658128801566    2.0916979091573569
   Ga   N 
     2     2
Direct
  0.0289511056710681  0.1657958748458070  0.0584684213465516
 -0.3493215174093409  0.8100719085914535  0.3711328683165693
  0.3223209093366577 -0.6815461161476924 -0.0281161287228544
  0.3578495024016152  0.6573483327104254  0.4530148390597285
 
  0.00000000E+00  0.00000000E+00  0.00000000E+00
  0.00000000E+00  0.00000000E+00  0.00000000E+00
  0.00000000E+00  0.00000000E+00  0.00000000E+00
  0.00000000E+00  0.00000000E+00  0.00000000E+00
