Ga  N                                   
   1.00000000000000     
     8.2780394639968140    0.2751815981509125    0.2442002249867309
     1.0047169392029602    2.4258897817854308    0.1495773958644778
     0.8301362537170046    0.7623889579147149    2.6861503324871716
   Ga   N 
     2     2
Direct
  0.1793037527229385  0.6590852760806777  0.2621635232596583
  0.5099001205710939  0.3076753715016175 -0.4299743474765898
  0.9240901883383721 -0.0778308652212862 -0.1149229169573676
 -0.2330440616324008  0.0869502176389876 -0.0359062588256958
 
  0.00000000E+00  0.00000000E+00  0.00000000E+00
  0.00000000E+00  0.00000000E+00  0.00000000E+00
  0.00000000E+00  0.00000000E+00  0.00000000E+00
  0.00000000E+00  0.00000000E+00  0.00000000E+00
