Ga  N                                   
   1.00000000000000     
     3.2422355036879824    0.0036362773176875   -0.0037675115689193
     1.6874067926723499    3.6472140844296237   -0.0747440909652968
     0.1757290618997591    0.9360637287272041    4.1761127680082550
   Ga   N 
     2     2
Direct
 -0.0957246751504990  0.5035816595803647  0.6973654805058661
  0.5366820212697757  0.1434892495333135  0.2717706308706755
  0.3152566833215138  0.6498565397130772  0.9478816156533593
  0.1252959705592153 -0.0022774488267509  0.0224422729701030
 
  0.00000000E+00  0.00000000E+00  0.00000000E+00
  0.00000000E+00  0.00000000E+00  0.00000000E+00
  0.00000000E+00  0.00000000E+00  0.00000000E+00
  0.00000000E+00  0.00000000E+00  0.00000000E+00
