Ga  N                                   
   1.00000000000000     
     5.0083791743671142    0.1206782628034344   -0.2015506390925466
     3.2291287118271681    2.7891427394670329    0.0282999133332302
     2.6154970133075905    1.1951422988264546    2.4101649662045563
   Ga   N 
     2     2
Direct
 -0.3609929556387158 -0.4923232212373223  0.1653557920544778
  0.1395984488960886  0.5066859354363398  0.1664364903539760
  0.2375690537357452  0.2681452148680427  0.7771119482405483
  0.7382854530068909  0.2672420709329379  0.7765257693510055
 
  0.00000000E+00  0.00000000E+00  0.00000000E+00
  0.00000000E+00  0.00000000E+00  0.00000000E+00
  0.00000000E+00  0.00000000E+00  0.00000000E+00
  0.00000000E+00  0.00000000E+00  0.00000000E+00
