Ga  N                                   
   1.00000000000000     
     2.1319100000000000    0.0000000000000000    0.0000000000000000
     0.2646425294539456    2.6182193118996384    0.0000000000000000
    -0.2547488362459635    0.0783184385561294    3.8288655172927473
   Ga   N 
     2     2
Direct
  0.5239199999999968  0.2799699999999987  0.2227600000000010
  0.9627100000000013  0.8945900000000009  0.4424800000000033
  0.5006899999999987  0.5799200000000013  0.0310100000000020
  0.3202399999999983  0.1174699999999973  0.1769099999999995
 
  0.00000000E+00  0.00000000E+00  0.00000000E+00
  0.00000000E+00  0.00000000E+00  0.00000000E+00
  0.00000000E+00  0.00000000E+00  0.00000000E+00
  0.00000000E+00  0.00000000E+00  0.00000000E+00
