Ga  N                                   
   1.00000000000000     
     3.2450522219407656   -0.0165925407279419    0.0896521688391549
    -1.6227601143445325    2.5934634588086469   -0.1520815106093080
    -0.0366334482431912    0.9772406883169107    5.3345246830420239
   Ga   N 
     2     2
Direct
 -0.8116922126236145 -0.7075817338838197  0.1643335379763358
  0.0664726658077333  0.1043968208614970 -0.2550983238473851
 -0.1807268861417468  0.5611178874054561  0.3145109132595361
  0.7465464329576285  0.4508470256168606 -0.4033661273884933
 
  0.00000000E+00  0.00000000E+00  0.00000000E+00
  0.00000000E+00  0.00000000E+00  0.00000000E+00
  0.00000000E+00  0.00000000E+00  0.00000000E+00
  0.00000000E+00  0.00000000E+00  0.00000000E+00
