Ga  N                                   
   1.00000000000000     
     4.6932264701870263    0.0235052595725307   -0.3944929047673827
     0.9019262092451520    3.7601562250954870    0.3424703031888233
     0.4116342794098610    0.7171611483274014    2.7962340756812205
   Ga   N 
     2     2
Direct
  0.0856740439371739  0.0644708297921149  0.3168161115426496
  0.6850345295909529  0.7234685600998405  0.9390279426103983
  0.4077920293166686  0.5666501488710554  0.5412514037493793
  0.3630493971551984 -0.7795195387630141 -0.2878254579024273
 
  0.00000000E+00  0.00000000E+00  0.00000000E+00
  0.00000000E+00  0.00000000E+00  0.00000000E+00
  0.00000000E+00  0.00000000E+00  0.00000000E+00
  0.00000000E+00  0.00000000E+00  0.00000000E+00
