Ga  N                                   
   1.00000000000000     
     4.5402365028601759    1.5082220082302611   -0.1707340723655089
     1.9663026372683476    4.6740980035631763   -0.2688420530741065
    -0.1399390481084164   -0.0638909996712980    3.7195148310042532
   Ga   N 
     2     2
Direct
  0.0684676205072680 -0.2121585141867061  0.7326343413969640
  0.1043870989483102 -0.7627956805752439  0.1961122675769792
  0.6976169448456403  0.7590557947504624  0.0767079321054661
  0.6005283356987844  0.1209084000114839 -0.4211045410794019
 
  0.00000000E+00  0.00000000E+00  0.00000000E+00
  0.00000000E+00  0.00000000E+00  0.00000000E+00
  0.00000000E+00  0.00000000E+00  0.00000000E+00
  0.00000000E+00  0.00000000E+00  0.00000000E+00
