Ga  N                                   
   1.00000000000000     
     4.0670834110178289    0.3839437652174132    0.3780285404041917
    -0.2276531079190178    3.9448693539473418   -1.1764446520679570
    -0.2259296447075617   -1.2026783742278477    2.5291092566533586
   Ga   N 
     2     2
Direct
 -0.0403143944290494 -0.7339337530075563 -0.0171409656269422
  0.4599009239778836  0.7645513296419562 -0.0199544036972053
 -0.0403656470496873 -0.2345253874838434 -0.0175590505531753
 -0.5410008824991471  0.2644878108494459 -0.0193355801226725
 
  0.00000000E+00  0.00000000E+00  0.00000000E+00
  0.00000000E+00  0.00000000E+00  0.00000000E+00
  0.00000000E+00  0.00000000E+00  0.00000000E+00
  0.00000000E+00  0.00000000E+00  0.00000000E+00
