Ga  N                                   
   1.00000000000000     
     3.8165448625578495   -0.0343650092375013    0.4275340337020834
    -0.7800449812814261    4.1781958960571774    0.0022171341928776
     0.6731262116268573    0.1097479552833460    2.9762698803882728
   Ga   N 
     2     2
Direct
  0.1292986373356684 -0.2732898773052264 -0.0011964381775560
  0.7804281082863633  0.1248665942984313 -0.3015820176266345
  0.6290286668488548  0.3957095875038620  0.2710521513072572
  0.2791145875291134  0.4552836955029344  0.4260063044969279
 
  0.00000000E+00  0.00000000E+00  0.00000000E+00
  0.00000000E+00  0.00000000E+00  0.00000000E+00
  0.00000000E+00  0.00000000E+00  0.00000000E+00
  0.00000000E+00  0.00000000E+00  0.00000000E+00
