Ga  N                                   
   1.00000000000000     
     5.2498726518521197    0.7460374072396575   -0.0564000236917500
     3.9031336746958707    3.6278710989369709    0.1584792644988089
     2.9683433004063220    1.1547495419394027    3.0980476072521048
   Ga   N 
     2     2
Direct
  0.1863719171246390  0.2072201227223858 -0.1548120138676617
  0.5089360663201440  0.5192744944805494  0.6359592513808450
 -0.0633751113720296  0.9499903303744506  0.0319537994867030
 -0.2418928720727541  0.7764750524226127  0.4499589630001127
 
  0.00000000E+00  0.00000000E+00  0.00000000E+00
  0.00000000E+00  0.00000000E+00  0.00000000E+00
  0.00000000E+00  0.00000000E+00  0.00000000E+00
  0.00000000E+00  0.00000000E+00  0.00000000E+00
