Ga  N                                   
   1.00000000000000     
     4.1419562498838456   -0.0268199273716685    0.1814514521939358
     3.0329717351696091    4.0260406655040191    0.2038071983841349
     2.7379459818117486    0.7013257203237244    2.9494352783579996
   Ga   N 
     2     2
Direct
 -0.1851072678510192 -0.0021917228765775  0.0718373279284689
  0.4261639123145807  0.4008706119219682 -0.3418343304354672
  0.4971070775972291 -0.2739481361530447 -0.2636045399886281
  0.7549862779392095  0.4787192471076491 -0.0198584575043678
 
  0.00000000E+00  0.00000000E+00  0.00000000E+00
  0.00000000E+00  0.00000000E+00  0.00000000E+00
  0.00000000E+00  0.00000000E+00  0.00000000E+00
  0.00000000E+00  0.00000000E+00  0.00000000E+00
