Ga  N                                   
   1.00000000000000     
     4.4360649623734574    0.0126373076451891    0.5222514257992900
     4.5702700495027813    4.4999002752818811    0.3322980210702121
     1.8100318635012682    0.1748057041417492    2.4630562846126924
   Ga   N 
     2     2
Direct
  0.9256934505334461 -0.4852314625020146  0.1563886365265507
 -0.0744837421647686  0.0150003147721783  0.1574333106700484
  0.1879752791154297  0.2525334392167974  0.6680849391375427
  0.1877050125158971  0.7527177085130419 -0.3306768863341366
 
  0.00000000E+00  0.00000000E+00  0.00000000E+00
  0.00000000E+00  0.00000000E+00  0.00000000E+00
  0.00000000E+00  0.00000000E+00  0.00000000E+00
  0.00000000E+00  0.00000000E+00  0.00000000E+00
