Ga  N                                   
   1.00000000000000     
     1.6594700000000000    0.0000000000000000    0.0000000000000000
    -1.2225278127111807    1.8487201117388257    0.0000000000000000
    -0.3216572480183779   -0.4253259338397891    3.9380794081887882
   Ga   N 
     2     2
Direct
  0.6185899999999975  0.0578700000000012  0.0149899999999974
  0.0677799999999991  0.6289599999999993  0.5444200000000023
  0.1002700000000019  0.1403999999999996  0.4823599999999999
  0.8867400000000032  0.6047799999999981  0.7727999999999966
 
  0.00000000E+00  0.00000000E+00  0.00000000E+00
  0.00000000E+00  0.00000000E+00  0.00000000E+00
  0.00000000E+00  0.00000000E+00  0.00000000E+00
  0.00000000E+00  0.00000000E+00  0.00000000E+00
