Ga  N                                   
   1.00000000000000     
     5.7773761926128060   -0.1748454539683553   -0.3991208211990886
    -1.3067154192885921    2.7171506353457580    0.5801527743803925
    -0.3882392397326954    0.7212272054120946    3.0964794215672571
   Ga   N 
     2     2
Direct
  0.2865884812456072  0.2298045030648541  0.1164510805352174
 -0.2133280983661073  0.3979049533265526 -0.2292609641154835
 -0.5913246431042494  0.0042127291166760  0.7584077068247781
 -0.0927257397752524  0.8439878144919160  0.1256821767554852
 
  0.00000000E+00  0.00000000E+00  0.00000000E+00
  0.00000000E+00  0.00000000E+00  0.00000000E+00
  0.00000000E+00  0.00000000E+00  0.00000000E+00
  0.00000000E+00  0.00000000E+00  0.00000000E+00
