Ga  N                                   
   1.00000000000000     
     2.1806199999999998    0.0000000000000000    0.0000000000000000
    -0.3195025120943883    2.1192407887886113    0.0000000000000000
    -0.1200070603227014    0.3302327156835780    3.0207037928047415
   Ga   N 
     2     2
Direct
  0.6147500000000008  0.5316499999999991  0.8224999999999980
  0.3658399999999986  0.2957800000000006  0.2151399999999981
  0.3127100000000027  0.0981999999999985  0.4653700000000001
  0.5360700000000023  0.1783399999999986  0.4824699999999993
 
  0.00000000E+00  0.00000000E+00  0.00000000E+00
  0.00000000E+00  0.00000000E+00  0.00000000E+00
  0.00000000E+00  0.00000000E+00  0.00000000E+00
  0.00000000E+00  0.00000000E+00  0.00000000E+00
