Ga  N                                   
   1.00000000000000     
     3.3039623496805728   -0.0661884655984547    0.0219544142236231
    -1.4590738505351071    3.6313592210142596    0.4142209935253949
    -0.2148771586234865   -0.3216404747368207    3.4010637608147030
   Ga   N 
     2     2
Direct
 -0.5556095156440827  0.9008384714193066  0.2613351555206602
 -0.2690130327744649 -0.4858944037421516 -0.1118136179509317
  0.0205298083739937  0.0186801898291879  0.5482176536248158
  0.1551927400445480  0.3973257424936587  0.6008608088054562
 
  0.00000000E+00  0.00000000E+00  0.00000000E+00
  0.00000000E+00  0.00000000E+00  0.00000000E+00
  0.00000000E+00  0.00000000E+00  0.00000000E+00
  0.00000000E+00  0.00000000E+00  0.00000000E+00
