Ga  N                                   
   1.00000000000000     
     3.2045230978262818    0.0441986089229398    0.4752679362007868
     1.3830128488189368    6.2976191629446401    1.4115635984039012
     0.8148398914355536    0.9735004415421333    2.3351318520198370
   Ga   N 
     2     2
Direct
 -0.4401622247116565  0.1681345333867190  0.4104858606366607
 -0.0542533700267849  0.6514193788822823 -0.5176719847628829
  0.5393268671700794  0.4840191226883921  0.4461510197617751
  0.9577887275683575  0.0120669650426080 -0.0673048956355553
 
  0.00000000E+00  0.00000000E+00  0.00000000E+00
  0.00000000E+00  0.00000000E+00  0.00000000E+00
  0.00000000E+00  0.00000000E+00  0.00000000E+00
  0.00000000E+00  0.00000000E+00  0.00000000E+00
