Ga  N                                   
   1.00000000000000     
    15.2771385385851879   -5.0829540461155602   -0.0183894456394321
    -4.8806928429180356   10.0597568789393641    6.1596846402326344
    -2.8274119160853441    6.7454288812314491   11.9365922804013938
   Ga   N 
     2     2
Direct
  0.5268558426918435  0.0686898539618831 -0.2040805971497573
 -0.0094293232625333 -0.2118889772716533 -0.4446619908100651
 -0.4487942166895060  0.7967866428282699 -0.0591031225197890
  0.2938376972601741 -0.8743075195184768  0.4279357104796171
 
  0.00000000E+00  0.00000000E+00  0.00000000E+00
  0.00000000E+00  0.00000000E+00  0.00000000E+00
  0.00000000E+00  0.00000000E+00  0.00000000E+00
  0.00000000E+00  0.00000000E+00  0.00000000E+00
