Ga  N                                   
   1.00000000000000     
     5.2577202766049433   -0.3028266683052873    0.0035409791056633
    -2.7150446212044570    2.8502796772941008    0.0221095796942271
     0.0422809713968841   -0.1894921319035426    2.8683085172859184
   Ga   N 
     2     2
Direct
 -0.4440963458374274  0.3274717112579625  0.1293368064962335
  0.0556889719475840  0.3272643305150811 -0.3685045282422851
  0.5517609577946790  0.0089988643282211  0.6065762775296025
  0.0521664160951699  0.0095150938987458  0.1089714442164480
 
  0.00000000E+00  0.00000000E+00  0.00000000E+00
  0.00000000E+00  0.00000000E+00  0.00000000E+00
  0.00000000E+00  0.00000000E+00  0.00000000E+00
  0.00000000E+00  0.00000000E+00  0.00000000E+00
