Ga  N                                   
   1.00000000000000     
    11.6238134657899224   -0.0528261494984678    2.1173275850458619
    -2.4735951110756824    6.6658340567067986   -0.9827098816159408
    -0.0284791213257118   -2.4121547876667568    8.9886302085055281
   Ga   N 
     2     2
Direct
  0.4878336234236308  0.0364151754198529  0.5658553308789681
  0.4467957108762154 -0.4223820911864410  0.7155174783975976
 -0.0334443167695071  0.0182337107603687 -0.1445844266921780
  0.1149249824696583  0.1690032050062218 -0.3124083825843823
 
  0.00000000E+00  0.00000000E+00  0.00000000E+00
  0.00000000E+00  0.00000000E+00  0.00000000E+00
  0.00000000E+00  0.00000000E+00  0.00000000E+00
  0.00000000E+00  0.00000000E+00  0.00000000E+00
