Ga  N                                   
   1.00000000000000     
     3.3339405206987527    0.1270038628761122   -0.0677914604729335
    -1.8612034962401056    3.5279011049626803    0.1394581625032944
    -0.1447293821810329   -0.8065364398559187    3.5882379163790143
   Ga   N 
     2     2
Direct
  0.1293584144874630  0.2040950444180604  0.0862553435538566
 -0.1815057579537722 -0.4258615300645985 -0.3057205839190056
  0.3670501086505151 -0.2895168774311100  0.4328994825015993
 -0.4195127651842138  0.0674733630776493 -0.6525242421364504
 
  0.00000000E+00  0.00000000E+00  0.00000000E+00
  0.00000000E+00  0.00000000E+00  0.00000000E+00
  0.00000000E+00  0.00000000E+00  0.00000000E+00
  0.00000000E+00  0.00000000E+00  0.00000000E+00
