Ga  N                                   
   1.00000000000000     
     2.0356500000000000    0.0000000000000000    0.0000000000000000
     1.0623760707256649    1.9022310449704829    0.0000000000000000
     1.3221736145002354    1.0344948930437528    2.8910890742046980
   Ga   N 
     2     2
Direct
  0.3582400000000021  0.5188300000000012  0.1140400000000028
  0.0609999999999999  0.1048199999999966  0.5351700000000008
  0.4310800000000015  0.3813000000000031  0.0133399999999995
  0.0790199999999999  0.6760099999999980  0.5217799999999997
 
  0.00000000E+00  0.00000000E+00  0.00000000E+00
  0.00000000E+00  0.00000000E+00  0.00000000E+00
  0.00000000E+00  0.00000000E+00  0.00000000E+00
  0.00000000E+00  0.00000000E+00  0.00000000E+00
