Ga  N                                   
   1.00000000000000     
     3.0531169969128404   -0.2488960570242951    0.1178935101917019
    -2.3933570617567113    3.3373785872641730   -0.0362312321363777
    -0.3044113343688019   -0.1283236903608437    4.6577863961947354
   Ga   N 
     2     2
Direct
  0.2640110836765213  0.6466044833732532  0.1715359606780588
  0.2646039425427212  0.1462031886258344  0.6714191719562437
  0.7617006188589782  0.1511947230800124 -0.5836505934767325
  0.7608443549217749  0.6511476049208971  0.9163354608424310
 
  0.00000000E+00  0.00000000E+00  0.00000000E+00
  0.00000000E+00  0.00000000E+00  0.00000000E+00
  0.00000000E+00  0.00000000E+00  0.00000000E+00
  0.00000000E+00  0.00000000E+00  0.00000000E+00
