Ga  N                                   
   1.00000000000000     
     4.5089889885190662    0.2616844183014262   -0.2257944365443894
     0.2455663674077586    4.6191329667010832    0.1281256646030090
     0.2718429368362276    0.0760332947158124    2.8416722823205625
   Ga   N 
     2     2
Direct
  0.1955894416207386  0.8535938006401559  0.0491389453602966
  0.7161347960606632  0.7247419920840444  0.6112314885079730
  0.1026164569800271  0.4323504504482545  0.4728170574311189
  0.2651893053385724  0.2069737568275399  0.5011325087006129
 
  0.00000000E+00  0.00000000E+00  0.00000000E+00
  0.00000000E+00  0.00000000E+00  0.00000000E+00
  0.00000000E+00  0.00000000E+00  0.00000000E+00
  0.00000000E+00  0.00000000E+00  0.00000000E+00
