Ga  N                                   
   1.00000000000000     
     3.3491381026537659    0.1608876656504873    0.1097617851537619
    -1.6282326281079187    3.0818914392711232   -0.0762068064932873
    -0.2489398008097261   -0.2611159395317980    3.7139371840368502
   Ga   N 
     2     2
Direct
 -0.0243067936020141  0.2929395749409086 -0.7168990576339802
 -0.4175714414982737 -0.3262652254167215 -0.3227269104385718
  0.0743975864730342 -0.1831470363211280  0.0286565252179457
  0.4858706486272578  0.1513626867969371 -0.0696305571453905
 
  0.00000000E+00  0.00000000E+00  0.00000000E+00
  0.00000000E+00  0.00000000E+00  0.00000000E+00
  0.00000000E+00  0.00000000E+00  0.00000000E+00
  0.00000000E+00  0.00000000E+00  0.00000000E+00
