Ga  N                                   
   1.00000000000000     
     8.7816405199852205   -0.8682932165478511   -1.8479718206851869
     1.5580334545435555   14.1201810396049368   -3.4513833864051069
    -1.0947009150912379    0.4833650306414907    8.0703429776192941
   Ga   N 
     2     2
Direct
  0.0415150451477755  0.8179014618773141 -0.5759217274237328
 -0.3053197626505284  0.0743730163875879  0.5941721325699674
  0.8256136553166433 -0.9672519530904321 -0.4695806015799365
  0.4906110621861141 -0.8176625251744770  0.7671701964337108
 
  0.00000000E+00  0.00000000E+00  0.00000000E+00
  0.00000000E+00  0.00000000E+00  0.00000000E+00
  0.00000000E+00  0.00000000E+00  0.00000000E+00
  0.00000000E+00  0.00000000E+00  0.00000000E+00
