Ga  N                                   
   1.00000000000000     
     2.9800304484992770   -0.2665218135372587    0.0712252753039976
     1.0862746697302772    4.1938777045355700    0.4099567862718910
     1.3932959750170264    0.9675619679208064    4.3800506244085389
   Ga   N 
     2     2
Direct
  0.4663947939554977 -0.0472291507346527  0.5895205925682421
 -0.0086686127151391 -0.5368672516248123 -0.4232447424549561
 -0.1266099773587315  0.0983358471704298  0.0914920011536232
  0.1047337961183817 -0.1576294448109611  0.0816421487330917
 
  0.00000000E+00  0.00000000E+00  0.00000000E+00
  0.00000000E+00  0.00000000E+00  0.00000000E+00
  0.00000000E+00  0.00000000E+00  0.00000000E+00
  0.00000000E+00  0.00000000E+00  0.00000000E+00
