Ga  N                                   
   1.00000000000000     
     3.2851648234843913    0.0903597375794543   -0.0068907525161263
    -0.0943833017895592    3.2627006186100225    0.1579832426971183
     0.0119107085800444   -0.2442604031416224    4.4297155286878818
   Ga   N 
     2     2
Direct
  0.1392146489708226  0.3782676308042823  0.6383073295548226
  0.6387408062959777  0.8788542556030507  0.1383851147915244
  0.1385960517035598 -0.1232737471410068  0.3878481030719853
  0.6391984930296428  0.3772718607336720 -0.1122305474183336
 
  0.00000000E+00  0.00000000E+00  0.00000000E+00
  0.00000000E+00  0.00000000E+00  0.00000000E+00
  0.00000000E+00  0.00000000E+00  0.00000000E+00
  0.00000000E+00  0.00000000E+00  0.00000000E+00
