Ga  N                                   
   1.00000000000000     
     4.2334415403196957   -0.5240442728755507    0.1106327580434306
     0.8423256981166785    4.2871626614244693    0.4283495862367549
     1.2026609379797599    0.6766797630153302    2.8577846493069954
   Ga   N 
     2     2
Direct
  0.3602825130461076  0.7468908424302088  0.6881756786695230
  0.7667048126931146  0.3364967845169541 -0.3126429766457429
  0.0549326585862540  0.2838107146545911  0.0696982908604369
 -0.6896299843254715  0.0353416583982408  0.0674190071157836
 
  0.00000000E+00  0.00000000E+00  0.00000000E+00
  0.00000000E+00  0.00000000E+00  0.00000000E+00
  0.00000000E+00  0.00000000E+00  0.00000000E+00
  0.00000000E+00  0.00000000E+00  0.00000000E+00
