Ga  N                                   
   1.00000000000000     
     5.5056609969181043   -0.9224074277995955   -0.6979489719131129
     2.6548312114574490    6.3638051042168904   -0.0514132801449314
     1.3961191562134880    1.0506935433856699    4.0714911322914737
   Ga   N 
     2     2
Direct
  0.9239479468652916  0.2488517694690816 -0.2518136693775780
 -0.3451297765964602 -0.1958629053877606  0.1403018481662663
  0.0257610700404543  0.0598503946960793 -0.0515471583208775
 -0.0473792403092904  0.3117107412225961  0.1727489795321888
 
  0.00000000E+00  0.00000000E+00  0.00000000E+00
  0.00000000E+00  0.00000000E+00  0.00000000E+00
  0.00000000E+00  0.00000000E+00  0.00000000E+00
  0.00000000E+00  0.00000000E+00  0.00000000E+00
