Ga  N                                   
   1.00000000000000     
     3.8718727035059075   -0.3410763265282989    0.1449073616835378
    -0.3042931852921684    3.1069867243620104   -0.2208045263543606
     0.3974172796878043   -0.0868589075092477    3.1621739337416539
   Ga   N 
     2     2
Direct
 -0.1901243841119401  0.3727322319169192  0.7926714553437104
  0.2146109060978576  0.0905961279149249  0.0942122028779799
  0.3199924977488441 -0.2896111704383524  0.4634477493585484
 -0.2962090197347665 -0.2482971893934890 -0.5777814075802356
 
  0.00000000E+00  0.00000000E+00  0.00000000E+00
  0.00000000E+00  0.00000000E+00  0.00000000E+00
  0.00000000E+00  0.00000000E+00  0.00000000E+00
  0.00000000E+00  0.00000000E+00  0.00000000E+00
