Ga  N                                   
   1.00000000000000     
     2.0779200000000002    0.0000000000000000    0.0000000000000000
    -0.2540194387898982    3.0387111743001944    0.0000000000000000
    -0.0142537469056918   -0.0706048023890250    4.4597183635941358
   Ga   N 
     2     2
Direct
  0.9735900000000015  0.9405900000000003  0.9755899999999968
  0.1073000000000022  0.1792200000000008  0.2593499999999977
  0.5971199999999968  0.6067800000000005  0.8778599999999983
  0.9397099999999980  0.9688599999999994  0.9649000000000001
 
  0.00000000E+00  0.00000000E+00  0.00000000E+00
  0.00000000E+00  0.00000000E+00  0.00000000E+00
  0.00000000E+00  0.00000000E+00  0.00000000E+00
  0.00000000E+00  0.00000000E+00  0.00000000E+00
