Ga  N                                   
   1.00000000000000     
     4.9288673996113674    0.5313166001781104    0.4142126961473197
     4.4230218335451710    3.3588205080184377    0.4232746497940640
     3.5329790086839719    1.7747814479880881    2.7172919537202662
   Ga   N 
     2     2
Direct
  0.4292545999371239  0.0854986751323548 -0.7822953685681353
  0.4292687409798718  0.5848176222209804  0.2185310471747806
 -0.0720511482960668 -0.1647992287636117 -0.2810435653730677
 -0.0708621926209304  0.3348729314102829  0.7180978867664343
 
  0.00000000E+00  0.00000000E+00  0.00000000E+00
  0.00000000E+00  0.00000000E+00  0.00000000E+00
  0.00000000E+00  0.00000000E+00  0.00000000E+00
  0.00000000E+00  0.00000000E+00  0.00000000E+00
