Ga  N                                   
   1.00000000000000     
     1.8656500000000000    0.0000000000000000    0.0000000000000000
    -0.9753174322515222    1.4261765790905059    0.0000000000000000
    -0.2989304061006949    0.0245056633222760    3.7177910513735988
   Ga   N 
     2     2
Direct
  0.0236200000000011  0.9356599999999986  0.0787600000000026
  0.5058599999999984  0.1724600000000009  0.6584199999999996
  0.7261499999999970  0.3992799999999974  0.5419100000000014
  0.3141099999999994  0.4687699999999992  0.3353299999999990
 
  0.00000000E+00  0.00000000E+00  0.00000000E+00
  0.00000000E+00  0.00000000E+00  0.00000000E+00
  0.00000000E+00  0.00000000E+00  0.00000000E+00
  0.00000000E+00  0.00000000E+00  0.00000000E+00
