Ga  N                                   
   1.00000000000000     
     7.2626647212349926    4.4311632999352604    1.1867845396751064
     2.2839087108602514   13.2658170626913154    0.7163143129741709
     1.1945484841693190    1.6119277414947200    3.8794104487010532
   Ga   N 
     2     2
Direct
  0.5962868517286007  0.6803598082531872  0.3363591705259298
 -0.3744873310110080 -0.4418989068296421  0.1833299742700094
 -0.1255624692447422 -0.2238148365596871  0.0580149279778181
 -0.0438170514728526 -0.6799460648638601  0.1183459272262424
 
  0.00000000E+00  0.00000000E+00  0.00000000E+00
  0.00000000E+00  0.00000000E+00  0.00000000E+00
  0.00000000E+00  0.00000000E+00  0.00000000E+00
  0.00000000E+00  0.00000000E+00  0.00000000E+00
