Ga  N                                   
   1.00000000000000     
     3.8914315119507523   -0.2942806200152172    0.1215995220571487
    -0.9228677864846109    2.9275209370887358    0.0111422075725636
     0.6497676987457631    0.2926273573446008    4.4129343309165847
   Ga   N 
     2     2
Direct
 -0.2716473105013582  0.8214286046305869  0.1534613665395516
  0.3800712785812823  0.1190181123502686  0.7385662324565055
 -0.1217493932205700 -0.6135310204644313 -0.5826047473858899
  0.2295554251406486 -0.4466956965164205 -0.5249228516101663
 
  0.00000000E+00  0.00000000E+00  0.00000000E+00
  0.00000000E+00  0.00000000E+00  0.00000000E+00
  0.00000000E+00  0.00000000E+00  0.00000000E+00
  0.00000000E+00  0.00000000E+00  0.00000000E+00
