Ga  N                                   
   1.00000000000000     
     4.7966961981568730    1.1564701947890563    0.4417206785850372
     2.2785656957956055    7.1710889972140368   -0.0405014734334246
     2.5183696124044759    1.4834995757585621    7.6674413705888593
   Ga   N 
     2     2
Direct
  0.5945273296521654  0.0917842555992864  0.9111599933817410
  0.4825137111560031  0.1676429409849340  0.1998213421174044
  0.0718324728175757  0.0891433392056423  0.7289437066581873
  0.2071464863742571 -0.0187805357898670  0.2634449578426727
 
  0.00000000E+00  0.00000000E+00  0.00000000E+00
  0.00000000E+00  0.00000000E+00  0.00000000E+00
  0.00000000E+00  0.00000000E+00  0.00000000E+00
  0.00000000E+00  0.00000000E+00  0.00000000E+00
