Ga  N                                   
   1.00000000000000     
     4.7982114715237252   -0.1836620354172289   -0.3694293232626856
     0.8377836269186881    2.9852757095991214   -0.7602243920470120
     0.1506492236675290   -0.6504577318526238    3.9215024929863671
   Ga   N 
     2     2
Direct
  0.2523592065532431 -0.5352209664417875 -0.0195864958242653
  0.7572773660278644 -0.9221430555961616 -0.1999830813213090
 -0.0336085013773858  0.3971265255271088  0.5825346081979114
  0.0436619287962754  0.1452474965108367  0.1983649689476688
 
  0.00000000E+00  0.00000000E+00  0.00000000E+00
  0.00000000E+00  0.00000000E+00  0.00000000E+00
  0.00000000E+00  0.00000000E+00  0.00000000E+00
  0.00000000E+00  0.00000000E+00  0.00000000E+00
