Ga  N                                   
   1.00000000000000     
     5.2624414385285485   -0.2072610487925313   -0.0208049217355285
     1.0306798182515928    3.0174025540642320    0.0475995351730081
     1.4766398166614543    1.1070981079423396    2.6489794322756621
   Ga   N 
     2     2
Direct
  0.7907154594416230 -0.3463740847430852 -0.7052496571711965
  0.2904619016256158 -0.0265474367526901  0.1574105011988227
  0.6821436600988668  0.0076915562710775 -0.3017842229131640
 -0.8116410211661076 -0.3511800347752981 -0.1034566211144613
 
  0.00000000E+00  0.00000000E+00  0.00000000E+00
  0.00000000E+00  0.00000000E+00  0.00000000E+00
  0.00000000E+00  0.00000000E+00  0.00000000E+00
  0.00000000E+00  0.00000000E+00  0.00000000E+00
