Ga  N                                   
   1.00000000000000     
     5.4849323899427418    0.6048447926254914   -0.2896485061454897
     4.5970974070646102    2.9401669153674526   -0.3497375089909461
     4.9872326803033902    1.9796336777842358    2.0087030950931006
   Ga   N 
     2     2
Direct
  0.0243530737178792 -0.2331687346283682  0.4820268928251598
 -0.2427730261564809 -0.4098319970658193  0.2701369690887198
 -0.5082447021395000  0.4556159734094566 -0.0831065255283254
  0.2895246545780422 -0.0976952417153357 -0.1651673363855296
 
  0.00000000E+00  0.00000000E+00  0.00000000E+00
  0.00000000E+00  0.00000000E+00  0.00000000E+00
  0.00000000E+00  0.00000000E+00  0.00000000E+00
  0.00000000E+00  0.00000000E+00  0.00000000E+00
